unsat
(forall ((A (_ BitVec 7))
         (B (_ BitVec 7))
         (C (_ BitVec 4))
         (D (_ BitVec 23))
         (E (_ BitVec 1))
         (F (_ BitVec 1))
         (G (_ BitVec 4))
         (H (_ BitVec 1))
         (I (_ BitVec 30))
         (J (_ BitVec 4))
         (K (_ BitVec 1))
         (L (_ BitVec 32))
         (M (_ BitVec 1))
         (N (_ BitVec 1))
         (O (_ BitVec 1))
         (P (_ BitVec 1))
         (Q (_ BitVec 1))
         (R (_ BitVec 1))
         (S (_ BitVec 1))
         (T (_ BitVec 1))
         (U (_ BitVec 1))
         (V (_ BitVec 1))
         (W (_ BitVec 1))
         (X (_ BitVec 1))
         (Y (_ BitVec 1))
         (Z (_ BitVec 5))
         (A1 (_ BitVec 64))
         (B1 (_ BitVec 32))
         (C1 (_ BitVec 1))
         (D1 (_ BitVec 1))
         (E1 (_ BitVec 1))
         (F1 (_ BitVec 32))
         (G1 (_ BitVec 1))
         (H1 (_ BitVec 4))
         (I1 (_ BitVec 1))
         (J1 (_ BitVec 1))
         (K1 (_ BitVec 6))
         (L1 (_ BitVec 32))
         (M1 (_ BitVec 30))
         (N1 (_ BitVec 30))
         (O1 (_ BitVec 1))
         (P1 (_ BitVec 32))
         (Q1 (_ BitVec 1))
         (R1 (_ BitVec 1))
         (S1 (_ BitVec 5))
         (T1 (_ BitVec 1))
         (U1 (_ BitVec 15))
         (V1 (_ BitVec 4))
         (W1 (_ BitVec 1))
         (X1 (_ BitVec 1))
         (Y1 (_ BitVec 7))
         (Z1 (_ BitVec 1))
         (A2 (_ BitVec 5))
         (B2 (_ BitVec 1))
         (C2 (_ BitVec 1))
         (D2 (_ BitVec 1))
         (E2 (_ BitVec 1))
         (F2 (_ BitVec 1))
         (G2 (_ BitVec 2))
         (H2 (_ BitVec 32))
         (I2 (_ BitVec 1))
         (J2 (_ BitVec 1))
         (K2 (_ BitVec 1))
         (L2 (_ BitVec 32))
         (M2 (_ BitVec 1))
         (N2 (_ BitVec 1))
         (O2 (_ BitVec 32))
         (P2 (_ BitVec 1))
         (Q2 (_ BitVec 1))
         (R2 (_ BitVec 1))
         (S2 (_ BitVec 1))
         (T2 (_ BitVec 1))
         (U2 (_ BitVec 1))
         (V2 (_ BitVec 1))
         (W2 (_ BitVec 32))
         (X2 (_ BitVec 1))
         (Y2 (_ BitVec 4))
         (Z2 (_ BitVec 5))
         (A3 (_ BitVec 1))
         (B3 (_ BitVec 1))
         (C3 (_ BitVec 1))
         (D3 (_ BitVec 1))
         (E3 (_ BitVec 5))
         (F3 (_ BitVec 1))
         (G3 (_ BitVec 1))
         (H3 (_ BitVec 1))
         (I3 (_ BitVec 1))
         (J3 (_ BitVec 1))
         (K3 (_ BitVec 1))
         (L3 (_ BitVec 1))
         (M3 (_ BitVec 32))
         (N3 (_ BitVec 1))
         (O3 (_ BitVec 1))
         (P3 (_ BitVec 1))
         (Q3 (_ BitVec 4))
         (R3 (_ BitVec 32))
         (S3 (_ BitVec 1))
         (T3 (_ BitVec 6))
         (U3 (_ BitVec 1))
         (V3 (_ BitVec 7))
         (W3 (_ BitVec 1))
         (X3 (_ BitVec 32))
         (Y3 (_ BitVec 1))
         (Z3 (_ BitVec 32))
         (A4 (_ BitVec 4))
         (B4 (_ BitVec 1))
         (C4 (_ BitVec 1))
         (D4 (_ BitVec 1))
         (E4 (_ BitVec 1))
         (F4 (_ BitVec 1))
         (G4 (_ BitVec 1))
         (H4 (_ BitVec 1))
         (I4 (_ BitVec 8))
         (J4 (_ BitVec 1))
         (K4 (_ BitVec 1))
         (L4 (_ BitVec 1))
         (M4 (_ BitVec 5))
         (N4 (_ BitVec 1))
         (O4 (_ BitVec 1))
         (P4 (_ BitVec 1))
         (Q4 (_ BitVec 1))
         (R4 (_ BitVec 1))
         (S4 (_ BitVec 1))
         (T4 (_ BitVec 4))
         (U4 (_ BitVec 32))
         (V4 (_ BitVec 1))
         (W4 (_ BitVec 1))
         (X4 (_ BitVec 5))
         (Y4 (_ BitVec 1))
         (Z4 (_ BitVec 1))
         (A5 (_ BitVec 1))
         (B5 (_ BitVec 1))
         (C5 (_ BitVec 32))
         (D5 (_ BitVec 1))
         (E5 (_ BitVec 32))
         (F5 (_ BitVec 1))
         (G5 (_ BitVec 1))
         (H5 (_ BitVec 1))
         (I5 (_ BitVec 32))
         (J5 (_ BitVec 1))
         (K5 (_ BitVec 1))
         (L5 (_ BitVec 32))
         (M5 (_ BitVec 1))
         (N5 (_ BitVec 1))
         (O5 (_ BitVec 1))
         (P5 (_ BitVec 1))
         (Q5 (_ BitVec 1))
         (R5 (_ BitVec 1))
         (S5 (_ BitVec 1))
         (T5 (_ BitVec 1))
         (U5 (_ BitVec 1))
         (V5 (_ BitVec 1))
         (W5 (_ BitVec 32))
         (X5 (_ BitVec 32))
         (Y5 (_ BitVec 2))
         (Z5 (_ BitVec 1))
         (A6 (_ BitVec 1))
         (B6 (_ BitVec 1))
         (C6 (Array (_ BitVec 5) (_ BitVec 32)))
         (D6 (_ BitVec 1))
         (E6 (_ BitVec 1))
         (F6 (_ BitVec 1))
         (G6 (_ BitVec 1))
         (H6 (_ BitVec 23))
         (I6 (_ BitVec 32))
         (J6 (_ BitVec 1))
         (K6 (_ BitVec 1))
         (L6 (_ BitVec 1))
         (M6 (_ BitVec 1))
         (N6 (_ BitVec 32))
         (O6 (_ BitVec 1))
         (P6 (_ BitVec 5))
         (Q6 (_ BitVec 1))
         (R6 (_ BitVec 5))
         (S6 (_ BitVec 1))
         (T6 (_ BitVec 1))
         (U6 (_ BitVec 6))
         (V6 (_ BitVec 1))
         (W6 (_ BitVec 1))
         (X6 (_ BitVec 1))
         (Y6 (_ BitVec 7))
         (Z6 (_ BitVec 32))
         (A7 (_ BitVec 1))
         (B7 (_ BitVec 1))
         (C7 (_ BitVec 1))
         (D7 (_ BitVec 32))
         (E7 (_ BitVec 1))
         (F7 (_ BitVec 1))
         (G7 (_ BitVec 1))
         (H7 (_ BitVec 1))
         (I7 (_ BitVec 1))
         (J7 (_ BitVec 1))
         (K7 (_ BitVec 1))
         (L7 (_ BitVec 6))
         (M7 (Array (_ BitVec 4) (_ BitVec 8)))
         (N7 (_ BitVec 1))
         (O7 (_ BitVec 1))
         (P7 (_ BitVec 4))
         (Q7 (_ BitVec 1))
         (R7 (_ BitVec 4))
         (S7 (_ BitVec 1))
         (T7 (_ BitVec 3))
         (U7 (_ BitVec 1))
         (V7 (_ BitVec 4))
         (W7 (_ BitVec 8))
         (X7 (_ BitVec 2))
         (Y7 (_ BitVec 30))
         (Z7 (_ BitVec 1))
         (A8 (_ BitVec 8))
         (B8 (_ BitVec 8))
         (C8 (_ BitVec 2))
         (D8 (_ BitVec 2))
         (E8 (_ BitVec 1))
         (F8 (_ BitVec 1))
         (G8 (_ BitVec 1))
         (H8 (_ BitVec 7))
         (I8 (_ BitVec 1))
         (J8 (_ BitVec 1))
         (K8 (_ BitVec 1))
         (L8 (_ BitVec 1))
         (M8 (_ BitVec 1))
         (N8 (_ BitVec 1))
         (O8 (_ BitVec 32))
         (P8 (_ BitVec 32))
         (Q8 (_ BitVec 1))
         (R8 (_ BitVec 1))
         (S8 (_ BitVec 5)))
  (! (let ((a!1 (or (not ((_ bit2bool 3) Y1))
                    (not ((_ bit2bool 1) Y1))
                    (not ((_ bit2bool 2) Y1))
                    (= ((_ extract 3 0) H8) #xf)
                    (not (= ((_ extract 0 0) Y1) #b1))))
           (a!2 (or ((_ bit2bool 4) Y1)
                    (not ((_ bit2bool 3) H8))
                    (not ((_ bit2bool 2) H8))
                    (not ((_ bit2bool 1) H8))
                    (= ((_ extract 4 0) H8) #b01111)
                    (not (= ((_ extract 0 0) Y1) #b1))))
           (a!3 (or ((_ bit2bool 31) D7)
                    (= ((_ extract 3 0) H8) #xf)
                    (not (= S2 #b1))
                    (not ((_ bit2bool 27) D7))
                    (not ((_ bit2bool 29) D7))
                    (not ((_ bit2bool 30) D7))
                    (not (= ((_ extract 28 28) D7) #b1)))))
     (let ((a!4 (and (or ((_ bit2bool 0) U2)
                         (not (= Z5 #b0))
                         ((_ bit2bool 0) B5)
                         ((_ bit2bool 31) H2)
                         (not ((_ bit2bool 25) H2))
                         (not ((_ bit2bool 23) H2))
                         (not (= P2 #b1)))
                     (= F3 #b0)
                     (= D4 #b0)
                     (or (not ((_ bit2bool 0) C4)) (not (= P2 #b1)))
                     (or (= Q4 #b0) (= Z7 #b1))
                     (or (not (= Z1 #b0)) (= Q1 #b0))
                     (or (not ((_ bit2bool 0) X2)) (= Z7 #b1))
                     (or (= T3 #b000000) (= S2 #b0) (not ((_ bit2bool 0) O1)))
                     (or ((_ bit2bool 0) X6) (not (= G3 #b1)) (not (= S4 #b1)))
                     (or (= X6 #b0) (not (= Q2 #b1)))
                     (or (not (= J2 #b1))
                         (= ((_ extract 3 1) V3) #b111)
                         (not ((_ bit2bool 0) O1))
                         (not ((_ bit2bool 0) Z1)))
                     (or (= T3 #b000000) (not (= N2 #b1)) (not (= I1 #b1)))
                     (or (not (= Q2 #b1)) (not (= G3 #b1)))
                     (or (not ((_ bit2bool 0) T1)) (= Q1 #b0))
                     (or ((_ bit2bool 0) S2)
                         (not (= Z5 #b0))
                         (= P2 #b0)
                         (not (= J2 #b1)))
                     (or ((_ bit2bool 0) S2)
                         (= Z7 #b1)
                         ((_ bit2bool 0) T1)
                         (not (= N2 #b0))
                         (not (= Z1 #b1)))
                     (or ((_ bit2bool 0) S2)
                         (not (= D6 #b1))
                         (= U3 #b0)
                         (= Z7 #b1)
                         (not (= Z5 #b0)))
                     (or ((_ bit2bool 3) V1)
                         (not (= Q1 #b1))
                         (not ((_ bit2bool 0) S2)))
                     (not (= T2 #b1))
                     (or (not (= Q2 #b1)) (= S2 #b0))
                     (or (not ((_ bit2bool 0) O1))
                         (not (= D5 #b0))
                         (not (= I1 #b1))
                         (= S2 #b0))
                     (or (= S2 #b0)
                         ((_ bit2bool 0) D5)
                         ((_ bit2bool 0) E1)
                         (not ((_ bit2bool 0) O1))
                         (= ((_ extract 30 28) D7) #b111)
                         (not ((_ bit2bool 26) D7))
                         (not ((_ bit2bool 25) D7)))
                     a!1
                     (or (= S2 #b0)
                         ((_ bit2bool 0) B2)
                         ((_ bit2bool 0) D5)
                         ((_ bit2bool 0) E1)
                         (= ((_ extract 30 28) D7) #b111)
                         (not ((_ bit2bool 26) D7)))
                     (or (not (= T5 #b0))
                         (not (= Z5 #b0))
                         (= P2 #b0)
                         ((_ bit2bool 0) B5)
                         (not ((_ bit2bool 26) H2))
                         (= ((_ extract 30 28) H2) #b111))
                     (or (not ((_ bit2bool 0) I2)) (not (= G3 #b1)))
                     (or (= R2 #b0) (not (= Q2 #b1)))
                     (or (not ((_ bit2bool 0) M6)) (= Q1 #b0))
                     (or (not (= Q2 #b1)) (= T5 #b0))
                     (or (not (= D5 #b1)) (not (= O6 #b1)))
                     (or (not (= N2 #b0)) (= Q1 #b0))
                     (or ((_ bit2bool 0) Q1)
                         (not ((_ bit2bool 0) O1))
                         (not (= N2 #b1)))
                     (or (not (= Q1 #b1)) (not (= J2 #b1)))
                     (or (not (= Q2 #b1)) (= W4 #b0))
                     (or (= P3 #b0) (not (= E7 #b0)) (not (= Z7 #b0)))
                     (or (not (= P3 #b0)) (not (= O3 #b1)) (not (= Z7 #b0)))
                     (or (not ((_ bit2bool 0) M6))
                         (not (= U3 #b1))
                         (not (= T3 #b000000)))
                     (or ((_ bit2bool 0) B5)
                         (not (= Z5 #b0))
                         (= O5 #b0)
                         (= P2 #b0))
                     (or (not (= Z5 #b0))
                         (not (= P3 #b0))
                         (= P2 #b0)
                         (not (= J2 #b1))
                         (= ((_ extract 4 0) Y1) #b01111)
                         (not (= Z7 #b0)))
                     (or (not (= Z5 #b0))
                         (not (= O1 #b1))
                         (not (= Z1 #b0))
                         (not (= J2 #b1))
                         (not (= P2 #b1)))
                     (or ((_ bit2bool 31) D7) (not (= O6 #b1)))
                     (or (= ((_ extract 3 1) Y1) #b111)
                         (not ((_ bit2bool 3) H8))
                         (not ((_ bit2bool 2) H8))
                         (not ((_ bit2bool 1) H8)))
                     (or (= S2 #b0)
                         ((_ bit2bool 31) D7)
                         (= B2 #b0)
                         (not ((_ bit2bool 25) D7)))
                     (or ((_ bit2bool 31) H2)
                         (not ((_ bit2bool 25) H2))
                         (not (= T5 #b1)))
                     (or (= S2 #b0)
                         (not (= O1 #b1))
                         (= ((_ extract 3 0) H8) #xf)
                         (not ((_ bit2bool 28) D7))
                         (not ((_ bit2bool 27) D7))
                         (not ((_ bit2bool 29) D7))
                         (not ((_ bit2bool 30) D7)))
                     (or (not (= T3 #b000000))
                         (not ((_ bit2bool 0) M6))
                         (not (= P2 #b1)))
                     (or (= Z7 #b1)
                         (not (= O1 #b1))
                         (not (= P3 #b0))
                         (not ((_ bit2bool 3) Y1))
                         (not ((_ bit2bool 1) Y1))
                         (not ((_ bit2bool 2) Y1))
                         (= ((_ extract 30 27) D7) #xe)
                         (= ((_ extract 4 0) Y1) #b01111)
                         (not (= D5 #b1))
                         (not (= S2 #b1))
                         (not (= I1 #b0)))
                     (or (not (= O6 #b0))
                         (not (= O1 #b1))
                         (not ((_ bit2bool 31) D7))
                         (not (= S2 #b1))
                         (not (= I1 #b0)))
                     (or ((_ bit2bool 4) H8)
                         (not ((_ bit2bool 0) H8))
                         (not ((_ bit2bool 1) Y1))
                         (not ((_ bit2bool 2) Y1))
                         (not ((_ bit2bool 3) Y1))
                         (= ((_ extract 4 0) Y1) #b01111))
                     (or ((_ bit2bool 6) V3)
                         ((_ bit2bool 0) V3)
                         (not ((_ bit2bool 0) V2))
                         (not ((_ bit2bool 1) V3))
                         (not ((_ bit2bool 3) V3))
                         (not ((_ bit2bool 2) V3)))
                     (or (not (= T5 #b0))
                         (not (= Z5 #b0))
                         ((_ bit2bool 26) H2)
                         (not (= U2 #b0))
                         (= P2 #b0)
                         ((_ bit2bool 0) B5))
                     (or (= S2 #b0)
                         ((_ bit2bool 0) B2)
                         ((_ bit2bool 26) D7)
                         ((_ bit2bool 0) B6)
                         ((_ bit2bool 0) E1))
                     (or (= S2 #b0)
                         ((_ bit2bool 0) B2)
                         (not (= P3 #b0))
                         ((_ bit2bool 0) D5)
                         ((_ bit2bool 0) E1)
                         (= ((_ extract 30 27) D7) #xe)
                         (= ((_ extract 4 0) Y1) #b01111)
                         (not ((_ bit2bool 26) D7))
                         (not (= Z7 #b0)))
                     a!2
                     (or (not (= Z5 #b0))
                         (not (= O1 #b1))
                         (not (= J2 #b1))
                         (= ((_ extract 26 25) D7) #b10)
                         (not (= P2 #b1)))
                     (or (= B6 #b0)
                         ((_ bit2bool 0) D5)
                         (not ((_ bit2bool 3) Y1))
                         (not ((_ bit2bool 1) Y1))
                         (not ((_ bit2bool 2) Y1))
                         (not ((_ bit2bool 0) S2)))
                     (or (not (= O1 #b1))
                         ((_ bit2bool 0) D5)
                         ((_ bit2bool 0) B6)
                         ((_ bit2bool 0) E1)
                         (not ((_ bit2bool 0) S2))
                         (not ((_ bit2bool 25) D7))
                         (not ((_ bit2bool 23) D7)))
                     (or (not ((_ bit2bool 1) Z2))
                         (not ((_ bit2bool 2) Z2))
                         (not ((_ bit2bool 3) Z2))
                         (not (= U2 #b1)))
                     (or (not ((_ bit2bool 0) Q6)) (not ((_ bit2bool 0) J7)))
                     (or (not (= J2 #b1)) (not (= N2 #b1)) (not (= P2 #b1)))
                     (or (= Q1 #b0)
                         (= (concat P3 #xf) ((_ extract 4 0) Y1))
                         (not ((_ bit2bool 0) S2))
                         (not (= Z7 #b0)))
                     (or ((_ bit2bool 0) S2)
                         (not (= Z5 #b0))
                         (= Q1 #b0)
                         (not (= P2 #b1)))
                     (or (= G2 #b11) (= U6 #b000000))
                     (or ((_ bit2bool 0) U2)
                         (not (= Z5 #b0))
                         (not (= P3 #b0))
                         (= P2 #b0)
                         ((_ bit2bool 0) B5)
                         ((_ bit2bool 31) H2)
                         (not ((_ bit2bool 25) H2))
                         (= Z2 #b01111)
                         (not (= Z7 #b0)))
                     (or ((_ bit2bool 31) H2) (not (= D6 #b1)) (= P2 #b0))
                     (or (= U2 #b0)
                         (= S2 #b0)
                         (= B3 #b0)
                         ((_ bit2bool 0) Z1)
                         ((_ bit2bool 31) H2))
                     (or (not (= Z5 #b0))
                         (= P2 #b0)
                         (= Q1 #b0)
                         (not ((_ bit2bool 26) D7)))
                     (or (not (= P3 #b0))
                         (= P2 #b0)
                         (not ((_ bit2bool 3) Y1))
                         (not ((_ bit2bool 1) Y1))
                         (not ((_ bit2bool 2) Y1))
                         (= D1 #b0)
                         (= ((_ extract 30 27) D7) #xe)
                         (= ((_ extract 4 0) Y1) #b01111)
                         (not ((_ bit2bool 0) S2))
                         (not (= Z7 #b0)))
                     (or (= H3 #b0)
                         (not (= Z5 #b0))
                         ((_ bit2bool 3) V1)
                         ((_ bit2bool 31) H2)
                         (not (= J2 #b1))
                         (not ((_ bit2bool 29) H2))
                         (not ((_ bit2bool 28) H2))
                         (not ((_ bit2bool 30) H2))
                         (not (= U2 #b1)))
                     (or (= S2 #b0)
                         ((_ bit2bool 25) D7)
                         (= D1 #b0)
                         (not (= P2 #b1)))
                     a!3
                     (or (not (= Z5 #b0))
                         ((_ bit2bool 31) H2)
                         (not ((_ bit2bool 29) H2))
                         (not ((_ bit2bool 28) H2))
                         (= ((_ extract 3 0) Z2) #xf)
                         (not ((_ bit2bool 30) H2))
                         (not (= P2 #b1)))
                     (or ((_ bit2bool 0) U2)
                         (not (= Z5 #b0))
                         ((_ bit2bool 0) B5)
                         ((_ bit2bool 31) H2)
                         (not ((_ bit2bool 25) H2))
                         (not (= P2 #b1))
                         (not ((_ bit2bool 4) A2))
                         (= ((_ extract 4 4) Z2) #b1))
                     (or (not (= S4 #b1)) (not (= N4 #b1)))
                     (or ((_ bit2bool 31) D7)
                         ((_ bit2bool 0) D5)
                         ((_ bit2bool 0) B6)
                         ((_ bit2bool 0) E1)
                         (not ((_ bit2bool 0) S2))
                         (not ((_ bit2bool 25) D7))
                         (not ((_ bit2bool 23) D7))))))
       (= (INV!slice!1 A
                       B
                       C
                       D
                       E
                       F
                       G
                       H
                       I
                       J
                       K
                       L
                       M
                       N
                       O
                       P
                       Q
                       R
                       S
                       T
                       U
                       V
                       W
                       X
                       Y
                       Z
                       A1
                       B1
                       C1
                       D1
                       E1
                       F1
                       G1
                       H1
                       I1
                       J1
                       K1
                       L1
                       M1
                       N1
                       O1
                       P1
                       Q1
                       R1
                       S1
                       T1
                       U1
                       V1
                       W1
                       X1
                       Y1
                       Z1
                       A2
                       B2
                       C2
                       D2
                       E2
                       F2
                       G2
                       H2
                       I2
                       J2
                       K2
                       L2
                       M2
                       N2
                       O2
                       P2
                       Q2
                       R2
                       S2
                       T2
                       U2
                       V2
                       W2
                       X2
                       Y2
                       Z2
                       A3
                       B3
                       C3
                       D3
                       E3
                       F3
                       G3
                       H3
                       I3
                       J3
                       K3
                       L3
                       M3
                       N3
                       O3
                       P3
                       Q3
                       R3
                       S3
                       T3
                       U3
                       V3
                       W3
                       X3
                       Y3
                       Z3
                       A4
                       B4
                       C4
                       D4
                       E4
                       F4
                       G4
                       H4
                       I4
                       J4
                       K4
                       L4
                       M4
                       N4
                       O4
                       P4
                       Q4
                       R4
                       S4
                       T4
                       U4
                       V4
                       W4
                       X4
                       Y4
                       Z4
                       A5
                       B5
                       C5
                       D5
                       E5
                       F5
                       G5
                       H5
                       I5
                       J5
                       K5
                       L5
                       M5
                       N5
                       O5
                       P5
                       Q5
                       R5
                       S5
                       T5
                       U5
                       V5
                       W5
                       X5
                       Y5
                       Z5
                       A6
                       B6
                       C6
                       D6
                       E6
                       F6
                       G6
                       H6
                       I6
                       J6
                       K6
                       L6
                       M6
                       N6
                       O6
                       P6
                       Q6
                       R6
                       S6
                       T6
                       U6
                       V6
                       W6
                       X6
                       Y6
                       Z6
                       A7
                       B7
                       C7
                       D7
                       E7
                       F7
                       G7
                       H7
                       I7
                       J7
                       K7
                       L7
                       M7
                       N7
                       O7
                       P7
                       Q7
                       R7
                       S7
                       T7
                       U7
                       V7
                       W7
                       X7
                       Y7
                       Z7
                       A8
                       B8
                       C8
                       D8
                       E8
                       F8
                       G8
                       H8
                       I8
                       J8
                       K8
                       L8
                       M8
                       N8
                       O8
                       P8
                       Q8
                       R8
                       S8)
          a!4)))
     :weight 0))
